(declare-fun k!94548 () Bool)
(declare-fun k!476 () (_ BitVec 8))
(declare-fun k!94549 () Bool)
(declare-fun k!475 () (_ BitVec 8))
(declare-fun k!94550 () Bool)
(declare-fun k!474 () (_ BitVec 8))
(declare-fun k!94551 () Bool)
(declare-fun k!473 () (_ BitVec 8))
(declare-fun k!94552 () Bool)
(declare-fun k!472 () (_ BitVec 8))
(declare-fun k!470 () (_ BitVec 8))
(declare-fun k!471 () (_ BitVec 8))
(assert (let ((a!1 ((_ extract 7 7) (bvadd #x01 (ite (= k!474 #x00) #xff #x00))))
      (a!2 ((_ extract 7 7) (bvadd #x01 (ite (= k!471 #x00) #xff #x00)))))
(let ((a!3 (concat #x000000
                   (ite (= k!476 #x43) #b1 #b0)
                   (ite (= k!475 #x43) #b1 #b0)
                   a!1
                   (ite (= k!473 #x41) #b1 #b0)
                   (ite (= k!472 #x43) #b1 #b0)
                   a!2
                   (ite (= k!470 #x30) #b1 #b0)
                   #b1)))
  (or (bvsle a!3 #x00000ffe) (bvsle #x00001000 a!3)))))
(assert (let ((a!1 ((_ extract 7 7) (bvadd #x01 (ite (= k!474 #x00) #xff #x00))))
      (a!2 ((_ extract 7 7) (bvadd #x01 (ite (= k!471 #x00) #xff #x00)))))
(let ((a!3 (bvmul #xffffffff
                  (concat #x000000
                          (ite (= k!476 #x43) #b1 #b0)
                          (ite (= k!475 #x43) #b1 #b0)
                          a!1
                          (ite (= k!473 #x41) #b1 #b0)
                          (ite (= k!472 #x43) #b1 #b0)
                          a!2
                          (ite (= k!470 #x30) #b1 #b0)
                          #b1))))
(let ((a!4 (ite (= ((_ extract 31 31) (bvadd #x00000fff a!3)) #b1)
                #x000000000000001f
                #x0000000000000040)))
(let ((a!5 (ite (= ((_ extract 30 30) (bvadd #x00000fff a!3)) #b1)
                #x000000000000001e
                a!4)))
(let ((a!6 (ite (= ((_ extract 29 29) (bvadd #x00000fff a!3)) #b1)
                #x000000000000001d
                a!5)))
(let ((a!7 (ite (= ((_ extract 28 28) (bvadd #x00000fff a!3)) #b1)
                #x000000000000001c
                a!6)))
(let ((a!8 (ite (= ((_ extract 27 27) (bvadd #x00000fff a!3)) #b1)
                #x000000000000001b
                a!7)))
(let ((a!9 (ite (= ((_ extract 26 26) (bvadd #x00000fff a!3)) #b1)
                #x000000000000001a
                a!8)))
(let ((a!10 (ite (= ((_ extract 25 25) (bvadd #x00000fff a!3)) #b1)
                 #x0000000000000019
                 a!9)))
(let ((a!11 (ite (= ((_ extract 24 24) (bvadd #x00000fff a!3)) #b1)
                 #x0000000000000018
                 a!10)))
(let ((a!12 (ite (= ((_ extract 23 23) (bvadd #x00000fff a!3)) #b1)
                 #x0000000000000017
                 a!11)))
(let ((a!13 (ite (= ((_ extract 22 22) (bvadd #x00000fff a!3)) #b1)
                 #x0000000000000016
                 a!12)))
(let ((a!14 (ite (= ((_ extract 21 21) (bvadd #x00000fff a!3)) #b1)
                 #x0000000000000015
                 a!13)))
(let ((a!15 (ite (= ((_ extract 20 20) (bvadd #x00000fff a!3)) #b1)
                 #x0000000000000014
                 a!14)))
(let ((a!16 (ite (= ((_ extract 19 19) (bvadd #x00000fff a!3)) #b1)
                 #x0000000000000013
                 a!15)))
(let ((a!17 (ite (= ((_ extract 18 18) (bvadd #x00000fff a!3)) #b1)
                 #x0000000000000012
                 a!16)))
(let ((a!18 (ite (= ((_ extract 17 17) (bvadd #x00000fff a!3)) #b1)
                 #x0000000000000011
                 a!17)))
(let ((a!19 (ite (= ((_ extract 16 16) (bvadd #x00000fff a!3)) #b1)
                 #x0000000000000010
                 a!18)))
(let ((a!20 (ite (= ((_ extract 15 15) (bvadd #x00000fff a!3)) #b1)
                 #x000000000000000f
                 a!19)))
(let ((a!21 (ite (= ((_ extract 14 14) (bvadd #x00000fff a!3)) #b1)
                 #x000000000000000e
                 a!20)))
(let ((a!22 (ite (= ((_ extract 13 13) (bvadd #x00000fff a!3)) #b1)
                 #x000000000000000d
                 a!21)))
(let ((a!23 (ite (= ((_ extract 12 12) (bvadd #x00000fff a!3)) #b1)
                 #x000000000000000c
                 a!22)))
(let ((a!24 (ite (= ((_ extract 11 11) (bvadd #x00000fff a!3)) #b1)
                 #x000000000000000b
                 a!23)))
(let ((a!25 (ite (= ((_ extract 10 10) (bvadd #x00000fff a!3)) #b1)
                 #x000000000000000a
                 a!24)))
(let ((a!26 (ite (= ((_ extract 9 9) (bvadd #x00000fff a!3)) #b1)
                 #x0000000000000009
                 a!25)))
(let ((a!27 (ite (= ((_ extract 8 8) (bvadd #x00000fff a!3)) #b1)
                 #x0000000000000008
                 a!26)))
(let ((a!28 (ite (= ((_ extract 7 7) (bvadd #x00000fff a!3)) #b1)
                 #x0000000000000007
                 a!27)))
(let ((a!29 (ite (= ((_ extract 6 6) (bvadd #x00000fff a!3)) #b1)
                 #x0000000000000006
                 a!28)))
(let ((a!30 (ite (= ((_ extract 5 5) (bvadd #x00000fff a!3)) #b1)
                 #x0000000000000005
                 a!29)))
(let ((a!31 (ite (= ((_ extract 4 4) (bvadd #x00000fff a!3)) #b1)
                 #x0000000000000004
                 a!30)))
(let ((a!32 (ite (= ((_ extract 3 3) (bvadd #x00000fff a!3)) #b1)
                 #x0000000000000003
                 a!31)))
(let ((a!33 (ite (= ((_ extract 2 2) (bvadd #x00000fff a!3)) #b1)
                 #x0000000000000002
                 a!32)))
(let ((a!34 (ite (= ((_ extract 1 1) (bvadd #x00000fff a!3)) #b1)
                 #x0000000000000001
                 a!33)))
  (= a!34 #x0000000000000001)))))))))))))))))))))))))))))))))))
(assert (let ((a!1 ((_ extract 7 7) (bvadd #x01 (ite (= k!474 #x00) #xff #x00))))
      (a!2 ((_ extract 7 7) (bvadd #x01 (ite (= k!471 #x00) #xff #x00)))))
(let ((a!3 (bvmul #xffffffff
                  (concat #x000000
                          (ite (= k!476 #x43) #b1 #b0)
                          (ite (= k!475 #x43) #b1 #b0)
                          a!1
                          (ite (= k!473 #x41) #b1 #b0)
                          (ite (= k!472 #x43) #b1 #b0)
                          a!2
                          (ite (= k!470 #x30) #b1 #b0)
                          #b1))))
(let ((a!4 (ite (= ((_ extract 31 31) (bvadd #x00000fff a!3)) #b1)
                #x000000000000001f
                #x0000000000000040)))
(let ((a!5 (ite (= ((_ extract 30 30) (bvadd #x00000fff a!3)) #b1)
                #x000000000000001e
                a!4)))
(let ((a!6 (ite (= ((_ extract 29 29) (bvadd #x00000fff a!3)) #b1)
                #x000000000000001d
                a!5)))
(let ((a!7 (ite (= ((_ extract 28 28) (bvadd #x00000fff a!3)) #b1)
                #x000000000000001c
                a!6)))
(let ((a!8 (ite (= ((_ extract 27 27) (bvadd #x00000fff a!3)) #b1)
                #x000000000000001b
                a!7)))
(let ((a!9 (ite (= ((_ extract 26 26) (bvadd #x00000fff a!3)) #b1)
                #x000000000000001a
                a!8)))
(let ((a!10 (ite (= ((_ extract 25 25) (bvadd #x00000fff a!3)) #b1)
                 #x0000000000000019
                 a!9)))
(let ((a!11 (ite (= ((_ extract 24 24) (bvadd #x00000fff a!3)) #b1)
                 #x0000000000000018
                 a!10)))
(let ((a!12 (ite (= ((_ extract 23 23) (bvadd #x00000fff a!3)) #b1)
                 #x0000000000000017
                 a!11)))
(let ((a!13 (ite (= ((_ extract 22 22) (bvadd #x00000fff a!3)) #b1)
                 #x0000000000000016
                 a!12)))
(let ((a!14 (ite (= ((_ extract 21 21) (bvadd #x00000fff a!3)) #b1)
                 #x0000000000000015
                 a!13)))
(let ((a!15 (ite (= ((_ extract 20 20) (bvadd #x00000fff a!3)) #b1)
                 #x0000000000000014
                 a!14)))
(let ((a!16 (ite (= ((_ extract 19 19) (bvadd #x00000fff a!3)) #b1)
                 #x0000000000000013
                 a!15)))
(let ((a!17 (ite (= ((_ extract 18 18) (bvadd #x00000fff a!3)) #b1)
                 #x0000000000000012
                 a!16)))
(let ((a!18 (ite (= ((_ extract 17 17) (bvadd #x00000fff a!3)) #b1)
                 #x0000000000000011
                 a!17)))
(let ((a!19 (ite (= ((_ extract 16 16) (bvadd #x00000fff a!3)) #b1)
                 #x0000000000000010
                 a!18)))
(let ((a!20 (ite (= ((_ extract 15 15) (bvadd #x00000fff a!3)) #b1)
                 #x000000000000000f
                 a!19)))
(let ((a!21 (ite (= ((_ extract 14 14) (bvadd #x00000fff a!3)) #b1)
                 #x000000000000000e
                 a!20)))
(let ((a!22 (ite (= ((_ extract 13 13) (bvadd #x00000fff a!3)) #b1)
                 #x000000000000000d
                 a!21)))
(let ((a!23 (ite (= ((_ extract 12 12) (bvadd #x00000fff a!3)) #b1)
                 #x000000000000000c
                 a!22)))
(let ((a!24 (ite (= ((_ extract 11 11) (bvadd #x00000fff a!3)) #b1)
                 #x000000000000000b
                 a!23)))
(let ((a!25 (ite (= ((_ extract 10 10) (bvadd #x00000fff a!3)) #b1)
                 #x000000000000000a
                 a!24)))
(let ((a!26 (ite (= ((_ extract 9 9) (bvadd #x00000fff a!3)) #b1)
                 #x0000000000000009
                 a!25)))
(let ((a!27 (ite (= ((_ extract 8 8) (bvadd #x00000fff a!3)) #b1)
                 #x0000000000000008
                 a!26)))
(let ((a!28 (ite (= ((_ extract 7 7) (bvadd #x00000fff a!3)) #b1)
                 #x0000000000000007
                 a!27)))
(let ((a!29 (ite (= ((_ extract 6 6) (bvadd #x00000fff a!3)) #b1)
                 #x0000000000000006
                 a!28)))
(let ((a!30 (ite (= ((_ extract 5 5) (bvadd #x00000fff a!3)) #b1)
                 #x0000000000000005
                 a!29)))
(let ((a!31 (ite (= ((_ extract 4 4) (bvadd #x00000fff a!3)) #b1)
                 #x0000000000000004
                 a!30)))
(let ((a!32 (ite (= ((_ extract 3 3) (bvadd #x00000fff a!3)) #b1)
                 #x0000000000000003
                 a!31)))
(let ((a!33 (ite (= ((_ extract 2 2) (bvadd #x00000fff a!3)) #b1)
                 #x0000000000000002
                 a!32)))
(let ((a!34 (ite (= ((_ extract 1 1) (bvadd #x00000fff a!3)) #b1)
                 #x0000000000000001
                 a!33)))
  (= a!34 #x0000000000000001)))))))))))))))))))))))))))))))))))
(assert (or (bvsle (concat #x000000 k!470) #x8000002f)
    (bvsle #x00000031 (concat #x000000 k!470))))
(assert (or (bvsle (concat #x000000 k!470) #x8000002f)
    (bvsle #x00000031 (concat #x000000 k!470))))
(assert (or (bvsle (concat #x000000 k!471) #x8000006b)
    (bvsle #x0000006d (concat #x000000 k!471))))
(assert (or (bvsle (concat #x000000 k!471) #x8000006b)
    (bvsle #x0000006d (concat #x000000 k!471))))
(assert (bvsle #x00000000 (bvadd #xffffff8b (concat #x000000 k!471))))

(maximize k!476) 
(maximize k!475) 
(maximize k!474) 
(maximize k!473) 
(maximize k!472) 
(maximize k!470) 
(maximize k!471) 
(set-option :opt.priority box) 
(check-sat)
